NAME : local_2
TYPE : ATSP
DIMENSION : 7
EDGE_WEIGHT_TYPE : EXPLICIT
EDGE_WEIGHT_FORMAT : FULL_MATRIX
EDGE_WEIGHT_SECTION
0 10000000 10000000 865 627 902 951 
0 0 525 10000000 10000000 327 10000000 
0 525 0 10000000 10000000 821 10000000 
0 10000000 10000000 0 269 10000000 410 
0 10000000 10000000 269 0 1125 570 
0 327 821 10000000 1043 0 10000000 
0 10000000 10000000 10000000 10000000 10000000 0 
EOF